{\rtf1\ansi\ansicpg1252\cocoartf1187\cocoasubrtf390
{\fonttbl\f0\fswiss\fcharset0 Helvetica;}
{\colortbl;\red255\green255\blue255;}
\paperw11900\paperh16840\margl1440\margr1440\vieww10800\viewh8400\viewkind0
\pard\tx566\tx1133\tx1700\tx2267\tx2834\tx3401\tx3968\tx4535\tx5102\tx5669\tx6236\tx6803\pardirnatural

\f0\fs24 \cf0 sortnetsort6.v.stepl.003-shuffled.qdimacs\
Execution time: 4.396468s\
p cnf 929\
e 29 30 31 32 33 34 35 36 37 38 39 40 41 42 43 44 45 46 47 48 49 50 51 52 53 54 55 56 57 58 59 60 61 62 63 64 65 66 67 68 69 70 71 72 73 0\
a 74 1 2 3 4 5 6 0\
e 7 8 9 10 11 12 13 14 15 16 17 18 19 20 21 22 23 24 25 26 27 28 75 76 77 78 79 80 81 82 83 84 85 86 87 88 89 90 91 92 93 94 95 96 97 98 99 100 101 102 103 104 105 106 107 108 109 110 111 112 113 114 115 116 117 118 119 120 121 122 123 124 125 126 127 128 129 130 131 132 133 134 135 136 137 138 139 140 141 142 143 144 145 146 147 148 149 150 151 152 153 154 155 156 157 158 159 160 161 162 163 164 165 166 167 168 169 170 171 172 173 174 175 176 177 178 179 180 181 182 183 184 185 186 187 188 189 190 191 192 193 194 195 196 197 198 199 200 201 202 203 204 205 206 207 208 209 210 211 212 213 214 215 216 217 218 219 220 221 222 223 224 225 226 227 228 229 230 231 232 233 234 235 236 237 238 239 240 241 242 243 244 245 246 247 248 249 250 251 252 253 254 255 256 257 258 259 260 261 262 263 264 265 266 267 268 269 270 271 272 273 274 275 276 277 278 279 280 281 282 283 284 285 286 287 0\
105 -38 -2 0\
-140 -105 -38 2 0\
105 -38 2 0\
-140 38 2 0\
-132 -18 -17 -4 0\
-132 -68 18 -17 -4 0\
273 132 -68 18 -17 -4 0\
-132 68 18 -17 -4 0\
-132 17 -4 0\
273 -68 18 -17 4 0\
-184 -46 -13 -9 0\
-52 -46 -16 13 -9 0\
-184 52 -46 -16 13 -9 0\
-52 46 -16 13 -9 0\
-184 -46 16 13 -9 0\
-184 -46 9 0\
246 -72 -61 0\
-276 -246 72 -61 0\
246 72 -61 0\
-276 72 61 0\
-196 50 -6 -2 0\
-37 -9 6 -2 0\
-196 50 37 -9 6 -2 0\
-196 50 9 6 -2 0\
-196 50 2 0\
234 -59 -8 0\
-192 -59 8 0\
234 192 -59 8 0\
-192 59 8 0\
25 -24 -13 -9 0\
194 -52 -25 -24 13 -9 0\
25 -24 13 -9 0\
194 -52 24 13 -9 0\
25 -24 9 0\
-182 -49 0\
235 -234 182 -49 0\
235 -234 49 0\
-220 -174 -73 -47 0\
174 -73 -47 0\
174 73 -47 0\
-220 -73 47 0\
-279 69 -20 -15 0\
258 -69 -63 20 -15 0\
-279 -258 69 -63 20 -15 0\
258 69 -63 20 -15 0\
-279 69 63 20 -15 0\
-279 69 15 0\
-226 -177 -72 -56 0\
177 -72 -56 0\
177 72 -56 0\
-226 -72 56 0\
-179 -56 -53 0\
-179 56 -53 0\
-208 179 56 -53 0\
-208 56 53 0\
-92 -37 -17 -10 0\
-92 -37 17 -10 0\
202 201 200 92 -37 17 -10 0\
202 201 200 37 17 -10 0\
-92 -37 10 0\
-52 -48 0\
-218 -70 52 -48 0\
-218 -70 48 0\
238 -73 -32 0\
-141 -73 32 0\
238 141 -73 32 0\
-141 73 32 0\
242 -69 -9 0\
-196 -69 9 0\
242 196 -69 9 0\
-196 69 9 0\
-177 -150 -149 -46 0\
150 -149 -46 0\
-177 149 -46 0\
150 -149 46 0\
-203 10 -3 0\
-139 -10 3 0\
-139 10 3 0\
-203 139 10 3 0\
281 -259 -62 19 -15 0\
259 -62 19 -15 0\
-34 -30 -29 0\
-35 34 -30 -29 0\
-35 30 -29 0\
-34 -30 29 0\
-268 64 -2 0\
-128 -64 2 0\
-128 64 2 0\
-268 128 64 2 0\
-180 -66 -45 0\
-231 180 -66 -45 0\
-180 66 -45 0\
-231 -66 45 0\
-250 -64 -6 -5 0\
-43 -12 6 -5 0\
-250 -64 43 -12 6 -5 0\
-250 -64 12 6 -5 0\
-250 -64 5 0\
233 -232 -1 0\
-141 1 0\
233 -232 141 1 0\
-110 -68 -30 0\
-249 110 -68 -30 0\
-110 68 -30 0\
-249 -68 30 0\
279 -69 19 -17 -6 -2 0\
279 -69 19 -17 -13 6 -2 0\
-37 -19 -17 13 6 -2 0\
-37 19 -17 13 6 -2 0\
279 -69 37 19 -17 13 6 -2 0\
-37 17 13 6 -2 0\
279 -69 19 -17 2 0\
-127 -73 -3 0\
-127 73 -3 0\
-283 127 73 -3 0\
-283 73 3 0\
-34 -29 -11 0\
-204 34 -29 -11 0\
-204 29 -11 0\
-34 -29 11 0\
-141 -5 -4 -2 0\
-141 -126 -35 -5 4 -2 0\
126 -35 -5 4 -2 0\
-141 35 -5 4 -2 0\
126 -35 5 4 -2 0\
-141 -5 2 0\
-242 -66 -8 0\
-15 8 0\
-242 -66 15 8 0\
-205 -11 -8 0\
205 -46 11 -8 0\
-205 -11 8 0\
-211 47 -6 -4 0\
144 -47 -42 6 -4 0\
-211 -144 47 -42 6 -4 0\
144 47 -42 6 -4 0\
-211 47 42 6 -4 0\
-211 47 4 0\
166 -47 -16 0\
-286 -166 -47 16 0\
166 -47 16 0\
-286 47 16 0\
-118 -19 -6 0\
-280 118 -19 -6 0\
-118 19 -6 0\
-280 -19 6 0\
-185 -71 -45 0\
-185 71 -45 0\
-277 185 71 -45 0\
-277 71 45 0\
-120 -19 -18 -4 0\
-120 -26 19 -18 -4 0\
-71 26 19 -18 -4 0\
-120 71 26 19 -18 -4 0\
-120 18 -4 0\
-71 26 19 -18 4 0\
-260 -19 -18 0\
-260 -26 19 -18 0\
281 280 279 278 260 -26 19 -18 0\
-260 26 19 -18 0\
281 280 279 278 -26 19 18 0\
-216 52 -31 0\
-135 -52 31 0\
-135 52 31 0\
-216 135 52 31 0\
-150 -58 -18 0\
-150 -58 18 0\
-276 150 -58 18 0\
-276 58 18 0\
115 -106 -105 -31 0\
106 -105 -31 0\
115 105 -31 0\
106 -105 31 0\
181 -52 -3 -1 0\
181 -121 -52 -30 3 -1 0\
121 -52 -30 3 -1 0\
121 52 -30 3 -1 0\
181 -52 30 3 -1 0\
181 -52 1 0\
170 -169 -2 -1 0\
170 -169 -122 -29 2 -1 0\
122 -29 2 -1 0\
170 -169 29 2 -1 0\
170 -169 1 0\
-147 33 -2 0\
-127 -33 2 0\
-127 33 2 0\
-147 127 33 2 0\
-146 -68 -6 0\
-146 68 -6 0\
-273 146 68 -6 0\
-273 68 6 0\
252 -65 -12 0\
-213 -65 12 0\
252 213 -65 12 0\
-213 65 12 0\
-80 -43 0\
112 -111 80 -43 0\
112 -111 43 0\
-58 -54 0\
-238 -70 58 -54 0\
-238 -70 54 0\
186 -185 -6 -1 0\
186 -185 -13 6 -1 0\
-33 13 6 -1 0\
186 -185 33 13 6 -1 0\
186 -185 1 0\
284 -72 20 -19 -18 -16 0\
280 -66 -20 19 -18 -16 0\
284 -280 -72 -66 20 19 -18 -16 0\
280 -72 -66 20 19 -18 -16 0\
280 72 -66 20 19 -18 -16 0\
284 -72 66 20 19 -18 -16 0\
280 -66 19 18 -16 0\
284 -72 20 -18 16 0\
243 -242 -236 -235 0\
236 -235 0\
243 -242 235 0\
-152 -58 -54 0\
168 152 -58 -54 0\
-152 58 -54 0\
168 -58 54 0\
-96 -65 -33 0\
-96 65 -33 0\
-266 96 65 -33 0\
-266 65 33 0\
164 -45 -13 -8 0\
188 -164 -48 -45 13 -8 0\
164 -48 -45 13 -8 0\
164 48 -45 13 -8 0\
188 -48 45 13 -8 0\
164 -45 8 0\
-203 -164 -44 -11 0\
164 -44 -11 0\
-203 44 -11 0\
164 -44 11 0\
223 -69 -15 0\
-259 -223 -69 15 0\
223 -69 15 0\
-259 69 15 0\
-133 3 -2 0\
-126 -3 2 0\
-126 3 2 0\
-133 126 3 2 0\
-49 -44 -3 0\
-129 49 -44 -3 0\
-129 44 -3 0\
-49 -44 3 0\
93 -92 -3 -2 0\
128 -93 -92 -34 3 -2 0\
93 -92 -34 3 -2 0\
128 92 -34 3 -2 0\
93 -92 34 3 -2 0\
93 -92 2 0\
-166 -48 -20 -17 0\
-166 -70 -48 20 -17 0\
270 166 -70 -48 20 -17 0\
-166 70 -48 20 -17 0\
270 -70 48 20 -17 0\
-166 -48 17 0\
-57 -56 0\
219 -70 57 -56 0\
219 -70 56 0\
150 -57 -16 0\
-274 -150 -57 16 0\
150 -57 16 0\
-274 57 16 0\
233 -67 -3 0\
-131 -67 3 0\
233 131 -67 3 0\
-131 67 3 0\
-279 -184 -48 -19 0\
184 -48 -19 0\
-279 48 -19 0\
184 -48 19 0\
-170 -48 -13 -12 0\
-58 -48 -19 13 -12 0\
-170 58 -48 -19 13 -12 0\
-58 48 -19 13 -12 0\
-170 -48 19 13 -12 0\
-170 -48 12 0\
100 -99 -12 -10 0\
209 -100 -99 -54 12 -10 0\
100 -99 -54 12 -10 0\
209 99 -54 12 -10 0\
100 -99 54 12 -10 0\
100 -99 10 0\
103 -36 -20 -18 0\
-72 -36 -25 20 -18 0\
103 72 -36 -25 20 -18 0\
-72 36 -25 20 -18 0\
103 -36 25 20 -18 0\
103 -36 18 0\
-162 -60 -52 0\
-250 162 -60 -52 0\
-162 60 -52 0\
-250 -60 52 0\
94 -36 -29 0\
-125 -94 36 -29 0\
94 36 -29 0\
-125 36 29 0\
-66 -59 -49 0\
-66 -59 49 0\
-198 66 -59 49 0\
-198 59 49 0\
-78 -40 -22 -15 0\
-78 -40 22 -15 0\
262 261 260 259 258 78 -40 22 -15 0\
262 261 260 259 258 40 22 -15 0\
-78 -40 15 0\
-63 27 20 -15 -11 -8 0\
-63 27 20 -18 -15 11 -8 0\
-46 -20 18 -15 11 -8 0\
-46 -27 20 18 -15 11 -8 0\
-46 27 20 18 -15 11 -8 0\
-63 46 27 20 18 -15 11 -8 0\
-46 18 15 11 -8 0\
-63 27 20 -15 8 0\
-270 70 -18 -16 0\
-270 70 -25 18 -16 0\
-65 25 18 -16 0\
-270 70 65 25 18 -16 0\
-270 70 16 0\
163 -162 -12 -11 0\
207 -163 -162 -56 12 -11 0\
163 -162 -56 12 -11 0\
207 162 -56 12 -11 0\
163 -162 56 12 -11 0\
163 -162 11 0\
168 -81 -80 -57 0\
81 -80 -57 0\
168 80 -57 0\
81 -80 57 0\
287 286 285 284 283 -27 20 -14 -7 0\
14 -7 0\
287 286 285 284 283 -27 20 7 0\
-65 -59 0\
256 -255 65 -59 0\
256 -255 59 0\
-111 -56 -35 0\
154 111 -56 -35 0\
-111 56 -35 0\
154 -56 35 0\
-88 -39 -4 -2 0\
-88 -39 -11 4 -2 0\
-35 11 4 -2 0\
-88 -39 35 11 4 -2 0\
-88 -39 2 0\
-64 -60 -6 -1 0\
-33 -8 6 -1 0\
-64 -60 33 -8 6 -1 0\
-64 -60 8 6 -1 0\
-64 -60 1 0\
-277 -19 -3 0\
-130 -19 3 0\
-277 130 -19 3 0\
-130 19 3 0\
-145 -6 -4 -1 0\
-145 -135 -31 -6 4 -1 0\
135 -31 -6 4 -1 0\
-145 31 -6 4 -1 0\
135 -31 6 4 -1 0\
-145 -6 1 0\
261 -60 17 -15 -9 0\
-195 -17 -15 9 0\
-195 -60 17 -15 9 0\
261 195 -60 17 -15 9 0\
-195 60 17 -15 9 0\
-195 15 9 0\
285 -70 20 -17 -11 -10 0\
203 -53 -20 -17 11 -10 0\
285 -203 -70 -53 20 -17 11 -10 0\
203 -70 -53 20 -17 11 -10 0\
203 70 -53 20 -17 11 -10 0\
285 -70 53 20 -17 11 -10 0\
203 -53 17 11 -10 0\
285 -70 20 -17 10 0\
109 -39 -19 -16 0\
-66 -39 -23 19 -16 0\
109 66 -39 -23 19 -16 0\
-66 39 -23 19 -16 0\
109 -39 23 19 -16 0\
109 -39 16 0\
-69 26 19 -17 -9 0\
-210 -19 -17 9 0\
-210 -26 19 -17 9 0\
-69 26 19 -17 9 0\
-210 69 26 19 -17 9 0\
-210 17 9 0\
-119 -5 -1 0\
-119 -5 1 0\
-121 119 -5 1 0\
-121 5 1 0\
-239 -67 -59 0\
-253 239 -67 -59 0\
-253 67 -59 0\
-239 -67 59 0\
-116 -29 -19 -15 0\
-62 -29 -22 19 -15 0\
-116 62 -29 -22 19 -15 0\
-62 29 -22 19 -15 0\
-116 -29 22 19 -15 0\
-116 -29 15 0\
187 -44 0\
-192 44 0\
-91 -36 -10 0\
-91 -36 10 0\
-200 91 -36 10 0\
-200 36 10 0\
157 -57 -18 -16 0\
274 -157 -65 -57 18 -16 0\
157 -65 -57 18 -16 0\
157 65 -57 18 -16 0\
274 -65 57 18 -16 0\
157 -57 16 0\
-197 49 -19 0\
-283 -49 19 0\
-197 49 19 0\
-283 197 49 19 0\
-42 -41 -12 -8 0\
-42 -41 12 -8 0\
189 -47 42 -41 12 -8 0\
189 -47 41 12 -8 0\
-42 -41 8 0\
-142 -41 -6 0\
-137 41 -6 0\
-142 137 41 -6 0\
-137 41 6 0\
110 -109 -108 -34 0\
108 -34 0\
110 -109 34 0\
-264 16 -10 -9 0\
-49 17 -16 10 -9 0\
-264 -17 16 10 -9 0\
-49 17 16 10 -9 0\
-264 49 17 16 10 -9 0\
-264 16 9 0\
-217 8 -3 -1 0\
-30 -8 3 -1 0\
-217 8 3 -1 0\
-217 8 1 0\
-39 -38 0\
-245 -61 39 -38 0\
-245 -61 38 0\
-277 18 -3 0\
-132 -18 3 0\
-132 18 3 0\
-277 132 18 3 0\
-70 -67 -24 20 -17 -16 0\
264 70 -67 -24 20 -17 -16 0\
-70 67 -24 20 -17 -16 0\
264 -67 24 20 -17 -16 0\
264 -67 20 17 -16 0\
-70 -24 20 -17 16 0\
-73 -62 0\
-76 75 74 73 -62 0\
-76 75 74 62 0\
-129 30 -6 -4 0\
-129 30 -13 6 -4 0\
-42 -30 13 6 -4 0\
-42 30 13 6 -4 0\
-129 42 30 13 6 -4 0\
-129 30 4 0\
-228 -70 -48 0\
-217 -70 48 0\
-228 217 -70 48 0\
-217 70 48 0\
-286 67 -11 -9 0\
-286 67 -18 11 -9 0\
-50 18 11 -9 0\
-286 67 50 18 11 -9 0\
-286 67 9 0\
-105 -68 -31 0\
226 105 -68 -31 0\
-105 68 -31 0\
226 -68 31 0\
156 -53 -1 0\
-120 -53 1 0\
156 120 -53 1 0\
-120 53 1 0\
108 -30 -13 -8 0\
108 -30 -20 13 -8 0\
-48 -30 20 13 -8 0\
108 48 -30 20 13 -8 0\
-48 30 20 13 -8 0\
108 -30 8 0\
222 -66 -13 -11 0\
-57 -18 13 -11 0\
222 -66 57 -18 13 -11 0\
222 -66 18 13 -11 0\
222 -66 11 0\
-206 -13 -3 -2 0\
-206 -127 -34 -13 3 -2 0\
127 -34 -13 3 -2 0\
-206 34 -13 3 -2 0\
127 -34 13 3 -2 0\
-206 -13 2 0\
-194 -13 -10 -8 0\
-194 -191 -45 -13 10 -8 0\
191 -45 -13 10 -8 0\
-194 45 -13 10 -8 0\
191 -45 13 10 -8 0\
-194 -13 8 0\
251 -66 -11 -9 0\
251 -204 -66 -50 11 -9 0\
204 -66 -50 11 -9 0\
204 66 -50 11 -9 0\
251 -66 50 11 -9 0\
251 -66 9 0\
-135 -18 -17 -4 0\
-68 -24 18 -17 -4 0\
-135 68 -24 18 -17 -4 0\
-135 24 18 -17 -4 0\
-135 17 -4 0\
-68 -24 18 -17 4 0\
-35 -34 -4 -2 0\
-35 -34 -9 4 -2 0\
-35 34 -9 4 -2 0\
-35 -34 9 4 -2 0\
-35 -34 2 0\
-175 -46 -12 -5 0\
-175 -142 -46 12 -5 0\
142 -46 12 -5 0\
142 46 12 -5 0\
-175 -46 5 0\
-172 -51 -40 0\
-130 -51 40 0\
-172 130 -51 40 0\
-130 51 40 0\
-50 -49 -35 0\
105 50 -49 -35 0\
105 49 -35 0\
-50 -49 35 0\
-86 -41 0\
87 86 -41 0\
255 -254 -24 -17 0\
272 271 270 -255 -254 24 -17 0\
255 -254 24 -17 0\
272 271 270 254 24 -17 0\
255 -254 17 0\
-267 -17 -12 -11 0\
-267 -19 -17 12 -11 0\
-56 19 -17 12 -11 0\
-267 56 19 -17 12 -11 0\
-56 19 17 12 -11 0\
-267 -17 11 0\
-85 -38 -20 -15 0\
-63 -38 -22 20 -15 0\
-85 63 -38 -22 20 -15 0\
-63 38 -22 20 -15 0\
-85 -38 22 20 -15 0\
-85 -38 15 0\
-34 -30 -21 -14 0\
21 -14 0\
-34 -30 14 0\
-276 -20 -11 -9 0\
-50 -20 -16 11 -9 0\
-276 50 -20 -16 11 -9 0\
-50 20 -16 11 -9 0\
-276 -20 16 11 -9 0\
-276 -20 9 0\
-126 -54 -4 0\
159 126 -54 -4 0\
-126 54 -4 0\
159 -54 4 0\
-197 -16 -15 -10 0\
-197 -23 16 -15 -10 0\
-59 23 16 -15 -10 0\
-197 59 23 16 -15 -10 0\
-197 15 -10 0\
-59 23 16 -15 10 0\
-55 -54 -2 -1 0\
-29 -8 2 -1 0\
-55 -54 29 -8 2 -1 0\
-55 -54 8 2 -1 0\
-55 -54 1 0\
246 -245 -9 0\
246 -245 -193 -16 9 0\
193 -16 9 0\
246 -245 16 9 0\
257 -59 -17 -15 0\
257 -59 -24 17 -15 0\
-60 -59 24 17 -15 0\
257 60 -59 24 17 -15 0\
-60 59 24 17 -15 0\
257 -59 15 0\
-38 -35 0\
99 -98 38 -35 0\
99 -98 35 0\
160 -159 -6 -1 0\
160 -159 -118 -33 6 -1 0\
118 -33 6 -1 0\
160 -159 33 6 -1 0\
160 -159 1 0\
196 -50 11 -9 -3 0\
129 128 -11 -10 -9 3 0\
196 -128 -50 11 -10 -9 3 0\
196 -129 128 -50 11 -10 -9 3 0\
129 128 -50 11 -10 -9 3 0\
129 128 50 11 -10 -9 3 0\
196 -50 11 10 -9 3 0\
129 128 -10 9 3 0\
-133 -52 -4 0\
-169 133 -52 -4 0\
-133 52 -4 0\
-169 -52 4 0\
248 -64 -8 0\
-190 -64 8 0\
248 190 -64 8 0\
-190 64 8 0\
-272 -18 -12 -10 0\
-272 -19 -18 12 -10 0\
-54 19 -18 12 -10 0\
-272 54 19 -18 12 -10 0\
-54 19 18 12 -10 0\
-272 -18 10 0\
98 -43 -40 0\
-145 -98 -43 40 0\
98 -43 40 0\
-145 43 40 0\
227 -169 -71 -55 0\
169 -71 -55 0\
169 71 -55 0\
227 -71 55 0\
-137 -5 0\
257 -256 137 -5 0\
257 -256 5 0\
75 74 -9 0\
-198 -74 9 0\
-198 -75 74 9 0\
75 74 9 0\
278 -71 19 -18 -16 -15 0\
-59 -22 -19 -18 16 -15 0\
-59 -22 19 -18 16 -15 0\
278 -71 59 -22 19 -18 16 -15 0\
278 -71 22 19 -18 16 -15 0\
-59 -22 18 16 -15 0\
278 -71 19 -18 15 0\
101 -99 -40 -33 0\
99 -40 -33 0\
101 40 -33 0\
99 -40 33 0\
114 -80 -79 -32 0\
80 -79 -32 0\
114 79 -32 0\
80 -79 32 0\
-67 -66 -2 0\
-67 -66 2 0\
-124 67 -66 2 0\
-124 66 2 0\
-58 -51 0\
239 -70 58 -51 0\
239 -70 51 0\
-43 -42 0\
162 -161 43 -42 0\
162 -161 42 0\
-138 -66 -5 0\
232 138 -66 -5 0\
-138 66 -5 0\
232 -66 5 0\
-132 38 -16 -15 0\
262 -59 -38 16 -15 0\
-132 -59 38 16 -15 0\
262 132 -59 38 16 -15 0\
-132 59 38 16 -15 0\
-132 38 15 0\
-125 -5 -1 0\
141 -32 5 -1 0\
-125 -5 1 0\
240 -239 -9 0\
-197 9 0\
240 -239 197 9 0\
-284 -151 -150 -20 0\
151 -150 -20 0\
-284 150 -20 0\
151 -150 20 0\
254 -62 -4 -2 0\
254 -134 -62 -35 4 -2 0\
134 -62 -35 4 -2 0\
134 62 -35 4 -2 0\
254 -62 35 4 -2 0\
254 -62 2 0\
-30 -29 -19 -15 0\
-30 -29 -26 19 -15 0\
-30 -29 26 19 -15 0\
-62 30 -29 26 19 -15 0\
-62 29 26 19 -15 0\
-30 -29 15 0\
-189 -158 -45 -12 0\
158 -45 -12 0\
-189 45 -12 0\
158 -45 12 0\
-53 -50 0\
251 -67 53 -50 0\
251 -67 50 0\
78 -59 -37 0\
-263 -78 59 -37 0\
78 59 -37 0\
-263 59 37 0\
-41 12 5 -4 -1 0\
-31 -8 4 -1 0\
-41 12 5 -4 1 0\
-73 -69 -55 0\
-73 -69 55 0\
-215 73 -69 55 0\
-215 69 55 0\
-158 -55 -8 -1 0\
-158 -118 -55 8 -1 0\
-158 -119 118 -55 8 -1 0\
-158 -120 119 118 -55 8 -1 0\
-158 -121 120 119 118 -55 8 -1 0\
-158 -122 121 120 119 118 -55 8 -1 0\
122 121 120 119 118 -55 8 -1 0\
122 121 120 119 118 55 8 -1 0\
-158 -55 1 0\
-177 -50 -16 0\
-177 -50 16 0\
-266 177 -50 16 0\
-266 50 16 0\
220 -219 -151 -58 0\
151 -58 0\
220 -219 58 0\
-73 -71 -32 0\
-103 73 -71 -32 0\
-103 71 -32 0\
-73 -71 32 0\
-158 -53 -20 -17 0\
-158 -53 -27 20 -17 0\
-70 -53 27 20 -17 0\
-158 70 -53 27 20 -17 0\
-70 53 27 20 -17 0\
-158 -53 17 0\
-144 -102 -41 -6 0\
102 -41 -6 0\
-144 41 -6 0\
102 -41 6 0\
152 -47 -9 -8 0\
152 -47 -16 9 -8 0\
-44 16 9 -8 0\
152 -47 44 16 9 -8 0\
152 -47 8 0\
-124 37 -30 0\
-121 -37 30 0\
-121 37 30 0\
-124 121 37 30 0\
-113 -29 -18 -17 0\
-113 -29 -25 18 -17 0\
-68 -29 25 18 -17 0\
-113 68 -29 25 18 -17 0\
-68 29 25 18 -17 0\
-113 -29 17 0\
-200 -107 -41 -13 0\
107 -41 -13 0\
-200 41 -13 0\
107 -41 13 0\
117 -116 -20 -15 0\
287 -117 -116 -63 20 -15 0\
117 -116 -63 20 -15 0\
287 116 -63 20 -15 0\
117 -116 63 20 -15 0\
117 -116 15 0\
-56 -54 -17 0\
-56 -54 -24 17 0\
269 268 56 -54 -24 17 0\
269 268 54 -24 17 0\
-56 -54 24 17 0\
90 -89 -12 -8 0\
211 -90 -89 -47 12 -8 0\
90 -89 -47 12 -8 0\
211 89 -47 12 -8 0\
90 -89 47 12 -8 0\
90 -89 8 0\
-236 -63 -8 0\
-205 -63 8 0\
-236 205 -63 8 0\
-205 63 8 0\
-240 -63 -15 0\
-240 -63 15 0\
-258 240 -63 15 0\
-258 63 15 0\
-83 -41 -18 -15 0\
-61 -41 -22 18 -15 0\
-83 61 -41 -22 18 -15 0\
-61 41 -22 18 -15 0\
-83 -41 22 18 -15 0\
-83 -41 15 0\
-198 -175 -53 -10 0\
175 -53 -10 0\
-198 53 -10 0\
175 -53 10 0\
-286 -29 -20 0\
-123 29 -20 0\
-286 123 29 -20 0\
-123 29 20 0\
219 -218 -12 -9 0\
219 -218 -210 -51 12 -9 0\
210 -51 12 -9 0\
219 -218 51 12 -9 0\
219 -218 9 0\
-133 38 -11 0\
-206 -38 11 0\
-133 38 11 0\
-206 133 38 11 0\
136 -42 6 -5 -4 -3 0\
-39 12 -6 5 -4 -3 0\
136 -42 -12 6 5 -4 -3 0\
-39 12 6 5 -4 -3 0\
136 -42 39 12 6 5 -4 -3 0\
-39 12 5 4 -3 0\
136 -42 6 -4 3 0\
-43 -41 -13 0\
-216 43 -41 -13 0\
-216 41 -13 0\
-43 -41 13 0\
-107 -35 -19 -16 0\
-107 -66 -35 19 -16 0\
265 107 -66 -35 19 -16 0\
-107 66 -35 19 -16 0\
265 -66 35 19 -16 0\
-107 -35 16 0\
226 -225 -1 0\
-123 1 0\
226 -225 123 1 0\
-247 -68 -15 0\
-247 -68 15 0\
-281 247 -68 15 0\
-281 68 15 0\
218 -63 -1 0\
-122 -63 1 0\
218 122 -63 1 0\
-122 63 1 0\
-196 -92 -36 -11 0\
92 -36 -11 0\
-196 36 -11 0\
92 -36 11 0\
-269 -171 -170 -17 0\
171 -170 -17 0\
-269 170 -17 0\
171 -170 17 0\
-37 -29 -4 0\
-37 -29 -11 4 0\
135 134 133 37 -29 -11 4 0\
135 134 133 29 -11 4 0\
-37 -29 11 4 0\
230 -229 -103 -102 0\
103 -102 0\
230 -229 102 0\
-271 69 -45 0\
-191 -69 45 0\
-191 69 45 0\
-271 191 69 45 0\
-285 -94 -30 -20 0\
94 -30 -20 0\
-285 30 -20 0\
94 -30 20 0\
171 -48 -8 0\
-193 -171 -48 8 0\
171 -48 8 0\
-193 48 8 0\
-49 -45 0\
-219 -72 49 -45 0\
-219 -72 45 0\
-275 -256 -60 -18 0\
256 -60 -18 0\
-275 60 -18 0\
256 -60 18 0\
-134 35 -19 -18 0\
-71 -35 -25 19 -18 0\
-71 35 -25 19 -18 0\
-134 71 35 -25 19 -18 0\
-134 35 25 19 -18 0\
-134 35 18 0\
-48 -47 -36 0\
-48 -47 36 0\
-140 48 -47 36 0\
-140 47 36 0\
-252 -100 -64 -37 0\
100 -64 -37 0\
100 64 -37 0\
-252 -64 37 0\
163 -52 -6 -3 0\
163 -52 -13 6 -3 0\
-40 13 6 -3 0\
163 -52 40 13 6 -3 0\
163 -52 3 0\
117 -55 -29 0\
-200 -117 55 -29 0\
117 55 -29 0\
-200 55 29 0\
179 -54 -29 0\
-122 -54 29 0\
179 122 -54 29 0\
-122 54 29 0\
-173 -47 -11 -10 0\
-53 -47 -17 11 -10 0\
-173 53 -47 -17 11 -10 0\
-53 47 -17 11 -10 0\
-173 -47 17 11 -10 0\
-173 -47 10 0\
-64 -60 0\
-247 -65 64 -60 0\
-247 -65 60 0\
244 -243 -116 -30 0\
116 -30 0\
244 -243 30 0\
-201 -12 0\
232 -231 201 -12 0\
232 -231 12 0\
-126 35 -10 -3 0\
132 131 130 -35 10 -3 0\
-126 35 10 -3 0\
132 131 130 126 35 10 -3 0\
-126 35 3 0\
-124 -72 -6 0\
247 124 -72 -6 0\
-124 72 -6 0\
247 -72 6 0\
-287 15 -13 -10 0\
-55 -17 -15 13 -10 0\
-55 -17 15 13 -10 0\
-287 55 -17 15 13 -10 0\
-287 17 15 13 -10 0\
-287 15 10 0\
-207 -12 0\
250 -249 207 -12 0\
250 -249 12 0\
245 -81 -65 -43 0\
81 -65 -43 0\
81 65 -43 0\
245 -65 43 0\
-254 -63 -61 0\
-254 63 -61 0\
-258 254 63 -61 0\
-258 63 61 0\
177 -57 -8 0\
-191 -177 -57 8 0\
177 -57 8 0\
-191 57 8 0\
-278 -48 -19 0\
-188 48 -19 0\
-278 188 48 -19 0\
-188 48 19 0\
-193 -51 -9 0\
-193 51 -9 0\
-210 193 51 -9 0\
-210 51 9 0\
-186 -158 -49 -44 0\
158 -49 -44 0\
-186 49 -44 0\
158 -49 44 0\
-270 -20 -6 -2 0\
-270 -124 -37 -20 6 -2 0\
124 -37 -20 6 -2 0\
-270 37 -20 6 -2 0\
124 -37 20 6 -2 0\
-270 -20 2 0\
-226 -71 -19 -18 0\
-226 -71 19 -18 0\
277 226 -71 19 -18 0\
-226 -71 18 0\
-212 -167 -166 -13 0\
167 -166 -13 0\
-212 166 -13 0\
167 -166 13 0\
-114 -31 -4 0\
-114 -31 4 0\
-137 114 -31 4 0\
-137 31 4 0\
-68 -65 -18 0\
-68 -65 18 0\
-284 68 -65 18 0\
-284 65 18 0\
153 -54 -5 -2 0\
-36 -9 5 -2 0\
153 -54 36 -9 5 -2 0\
153 -54 9 5 -2 0\
153 -54 2 0\
-43 -36 -6 -5 0\
-43 -36 -13 6 -5 0\
-43 -36 13 6 -5 0\
-43 36 13 6 -5 0\
-43 -36 5 0\
187 -186 -153 -152 0\
153 -152 0\
187 -186 152 0\
236 -92 -91 -62 0\
92 -91 -62 0\
236 91 -62 0\
92 -91 62 0\
178 -167 -48 -45 0\
167 -48 -45 0\
178 48 -45 0\
167 -48 45 0\
-128 34 -17 0\
-285 -34 17 0\
-128 34 17 0\
-285 128 34 17 0\
-164 -161 -50 -46 0\
161 -50 -46 0\
-164 50 -46 0\
161 -50 46 0\
-67 -59 -11 0\
-67 -59 11 0\
-208 67 -59 11 0\
-208 59 11 0\
-191 -10 0\
224 -223 191 -10 0\
224 -223 10 0\
-58 -57 -49 0\
-180 58 -57 -49 0\
-180 57 -49 0\
-58 -57 49 0\
-159 -59 -55 0\
-159 59 -55 0\
-262 159 59 -55 0\
-262 59 55 0\
229 -68 -34 0\
-127 -68 34 0\
229 127 -68 34 0\
-127 68 34 0\
243 -66 -54 0\
-201 -66 54 0\
243 201 -66 54 0\
-201 66 54 0\
282 26 -20 -19 0\
283 -73 -26 20 -19 0\
283 -282 -73 26 20 -19 0\
282 -73 26 20 -19 0\
282 73 26 20 -19 0\
-57 -56 0\
-278 71 57 -56 0\
-278 71 56 0\
-64 -23 17 -16 -10 -9 0\
-49 -17 -16 10 -9 0\
-49 -23 17 -16 10 -9 0\
-64 49 -23 17 -16 10 -9 0\
-49 23 17 -16 10 -9 0\
-64 -23 17 -16 9 0\
-264 67 -60 0\
-269 -67 60 0\
-264 67 60 0\
-269 264 67 60 0\
231 -89 -65 -38 0\
89 -65 -38 0\
89 65 -38 0\
231 -65 38 0\
87 -42 -7 0\
-14 7 0\
87 -42 14 7 0\
-143 43 -39 0\
-131 -43 39 0\
-131 43 39 0\
-143 131 43 39 0\
-64 -59 -12 -10 0\
-54 -17 12 -10 0\
-64 -59 54 -17 12 -10 0\
-64 -59 17 12 -10 0\
-64 -59 10 0\
-41 -39 -34 0\
-110 41 -39 -34 0\
-110 39 -34 0\
-41 -39 34 0\
-82 -39 -32 0\
104 82 -39 -32 0\
104 39 -32 0\
-82 -39 32 0\
79 -78 -16 -15 0\
263 -79 -78 -59 16 -15 0\
79 -78 -59 16 -15 0\
263 78 -59 16 -15 0\
79 -78 59 16 -15 0\
79 -78 15 0\
221 -220 -72 0\
-284 -221 -220 72 0\
221 -220 72 0\
-284 220 72 0\
-265 16 -4 -3 0\
132 -38 -16 4 -3 0\
-265 -132 -38 16 4 -3 0\
132 -38 16 4 -3 0\
-265 38 16 4 -3 0\
-265 16 3 0\
-88 -38 0\
-109 88 -38 0\
-99 -37 -34 0\
-112 99 -37 -34 0\
-112 37 -34 0\
-99 -37 34 0\
217 216 215 214 213 -20 13 -11 -8 0\
190 -46 -13 11 -8 0\
217 216 215 214 213 -190 -46 -20 13 11 -8 0\
190 -46 -20 13 11 -8 0\
217 216 215 214 213 46 -20 13 11 -8 0\
190 -46 20 13 11 -8 0\
217 216 215 214 213 -20 13 8 0\
-260 61 -9 -8 0\
193 -61 -44 9 -8 0\
-260 -193 61 -44 9 -8 0\
193 61 -44 9 -8 0\
-260 61 44 9 -8 0\
-260 61 8 0\
95 -31 -8 0\
-188 -95 -31 8 0\
95 -31 8 0\
-188 31 8 0\
116 -115 -70 0\
-285 -116 -115 70 0\
116 -115 70 0\
-285 115 70 0\
-58 -47 0\
-75 -74 58 -47 0\
-75 -74 47 0\
114 -90 -40 -33 0\
90 -40 -33 0\
114 40 -33 0\
90 -40 33 0\
-98 -40 -10 0\
-98 -40 10 0\
-209 98 -40 10 0\
-209 40 10 0\
85 -35 -5 -1 0\
85 -35 -12 5 -1 0\
-32 12 5 -1 0\
85 -35 32 12 5 -1 0\
85 -35 1 0\
-266 -18 -4 -3 0\
-266 -18 -11 4 -3 0\
-38 -18 11 4 -3 0\
-266 38 -18 11 4 -3 0\
-38 18 11 4 -3 0\
-266 -18 3 0\
-130 -60 -6 0\
234 130 -60 -6 0\
-130 60 -6 0\
234 -60 6 0\
-232 -101 -100 -67 0\
101 -100 -67 0\
-232 100 -67 0\
101 -100 67 0\
242 -183 -182 -71 0\
183 -182 -71 0\
242 182 -71 0\
183 -182 71 0\
113 -98 -42 -34 0\
98 -42 -34 0\
113 42 -34 0\
98 -42 34 0\
-204 50 -1 0\
-119 -50 1 0\
-119 50 1 0\
-204 119 50 1 0\
-267 64 -20 -19 0\
-73 -64 -26 20 -19 0\
-73 64 -26 20 -19 0\
-267 73 64 -26 20 -19 0\
-267 64 26 20 -19 0\
-267 64 19 0\
-247 -61 -15 0\
-247 -61 15 0\
-260 247 -61 15 0\
-260 61 15 0\
-84 -44 -43 0\
-183 84 -44 -43 0\
-84 44 -43 0\
-183 -44 43 0\
-66 -62 -13 -10 0\
-66 -62 -55 13 -10 0\
215 66 -62 -55 13 -10 0\
215 62 -55 13 -10 0\
-66 -62 55 13 -10 0\
-66 -62 10 0\
197 -49 10 -9 -5 -4 0\
138 -41 -10 -9 5 -4 0\
197 -138 -49 -41 10 -9 5 -4 0\
138 -49 -41 10 -9 5 -4 0\
138 49 -41 10 -9 5 -4 0\
197 -49 41 10 -9 5 -4 0\
138 -41 9 5 -4 0\
197 -49 10 -9 4 0\
113 -112 -7 0\
-77 -74 7 0\
113 -112 77 -74 7 0\
113 -112 74 7 0\
-107 -54 -38 0\
-107 54 -38 0\
-209 107 54 -38 0\
-209 54 38 0\
-262 15 -13 -9 0\
-52 20 -15 13 -9 0\
-262 -20 15 13 -9 0\
-52 20 15 13 -9 0\
-262 52 20 15 13 -9 0\
-262 15 9 0\
-177 -59 -53 0\
-256 177 -59 -53 0\
-177 59 -53 0\
-256 -59 53 0\
-51 -44 0\
-72 -71 51 -44 0\
-72 -71 44 0\
-45 -44 0\
255 -61 45 -44 0\
255 -61 44 0\
112 -35 -20 -18 0\
276 -112 -72 -35 20 -18 0\
112 -72 -35 20 -18 0\
112 72 -35 20 -18 0\
276 -72 35 20 -18 0\
112 -35 18 0\
-272 68 -20 -18 0\
-272 68 -27 20 -18 0\
-72 -68 27 20 -18 0\
-72 68 27 20 -18 0\
-272 72 68 27 20 -18 0\
-272 68 18 0\
225 -65 -11 -4 0\
225 -136 -65 11 -4 0\
225 -137 136 -65 11 -4 0\
137 136 -65 11 -4 0\
137 136 65 11 -4 0\
225 -65 4 0\
110 -38 -12 -11 0\
208 -110 -56 -38 12 -11 0\
110 -56 -38 12 -11 0\
110 56 -38 12 -11 0\
208 -56 38 12 -11 0\
110 -38 11 0\
85 -31 -3 -2 0\
85 -31 -10 3 -2 0\
-34 -31 10 3 -2 0\
85 34 -31 10 3 -2 0\
-34 31 10 3 -2 0\
85 -31 2 0\
-115 -30 -3 -2 0\
-34 -30 -9 3 -2 0\
-115 34 -30 -9 3 -2 0\
-34 30 -9 3 -2 0\
-115 -30 9 3 -2 0\
-115 -30 2 0\
-153 -56 -53 0\
-153 -56 53 0\
-203 153 -56 53 0\
-203 56 53 0\
174 -173 -4 -1 0\
174 -173 -120 -31 4 -1 0\
120 -31 4 -1 0\
174 -173 31 4 -1 0\
174 -173 1 0\
254 -88 -63 -30 0\
88 -63 -30 0\
88 63 -30 0\
254 -63 30 0\
-48 -15 13 -9 -8 0\
-216 -13 9 -8 0\
-48 -15 13 9 -8 0\
-216 48 -15 13 9 -8 0\
-216 15 13 9 -8 0\
-216 9 8 0\
260 -61 18 -17 -15 0\
269 -60 -18 17 -15 0\
269 -260 -61 -60 18 17 -15 0\
260 -61 -60 18 17 -15 0\
269 61 -60 18 17 -15 0\
260 -61 60 18 17 -15 0\
-274 65 -5 -3 0\
139 -65 -39 5 -3 0\
-274 -139 65 -39 5 -3 0\
139 65 -39 5 -3 0\
-274 65 39 5 -3 0\
-274 65 3 0\
-235 -70 -62 0\
249 235 -70 -62 0\
-235 70 -62 0\
249 -70 62 0\
-207 56 -10 -8 0\
199 -56 -45 10 -8 0\
-207 -199 56 -45 10 -8 0\
199 56 -45 10 -8 0\
-207 56 45 10 -8 0\
-207 56 8 0\
228 -64 -9 -2 0\
228 -124 -64 9 -2 0\
228 -125 124 -64 9 -2 0\
228 -126 125 124 -64 9 -2 0\
228 -127 126 125 124 -64 9 -2 0\
127 126 125 124 -64 9 -2 0\
127 126 125 124 64 9 -2 0\
228 -64 2 0\
-259 62 -37 0\
-146 -62 37 0\
-146 62 37 0\
-259 146 62 37 0\
-131 -62 -5 0\
222 131 -62 -5 0\
-131 62 -5 0\
222 -62 5 0\
-229 -165 -164 -70 0\
165 -164 -70 0\
-229 164 -70 0\
165 -164 70 0\
-228 -69 -10 -8 0\
-228 -69 -17 10 -8 0\
-45 17 10 -8 0\
-228 -69 45 17 10 -8 0\
-228 -69 8 0\
96 -32 -6 -3 0\
130 -96 -40 -32 6 -3 0\
96 -40 -32 6 -3 0\
96 40 -32 6 -3 0\
130 -40 32 6 -3 0\
96 -32 3 0\
-261 60 -14 0\
-21 14 0\
-261 60 21 14 0\
-265 -19 -6 -2 0\
-265 -146 -37 -19 6 -2 0\
146 -37 -19 6 -2 0\
-265 37 -19 6 -2 0\
146 -37 19 6 -2 0\
-265 -19 2 0\
-100 -33 0\
169 -168 100 -33 0\
169 -168 33 0\
147 146 145 144 143 -13 6 -5 -3 0\
131 -39 -6 5 -3 0\
147 146 145 144 143 -131 -39 -13 6 5 -3 0\
131 -39 -13 6 5 -3 0\
147 146 145 144 143 39 -13 6 5 -3 0\
131 -39 13 6 5 -3 0\
147 146 145 144 143 -13 6 3 0\
-94 -31 0\
106 94 -31 0\
107 -42 -8 0\
-211 -107 -42 8 0\
107 -42 8 0\
-211 42 8 0\
-143 -18 -6 0\
-143 18 -6 0\
-278 143 18 -6 0\
-278 18 6 0\
-225 -68 -13 -12 0\
-225 -213 -68 -58 13 -12 0\
213 -68 -58 13 -12 0\
213 68 -58 13 -12 0\
-225 -68 58 13 -12 0\
-225 -68 12 0\
249 -184 -69 -47 0\
184 -69 -47 0\
184 69 -47 0\
249 -69 47 0\
-201 10 -4 -1 0\
-31 11 -10 4 -1 0\
-201 -11 10 4 -1 0\
-31 11 10 4 -1 0\
-201 31 11 10 4 -1 0\
-201 10 1 0\
-148 -55 -4 -3 0\
-148 -133 -55 -38 4 -3 0\
133 -55 -38 4 -3 0\
133 55 -38 4 -3 0\
-148 -55 38 4 -3 0\
-148 -55 3 0\
-86 -51 -42 0\
181 86 -51 -42 0\
-86 51 -42 0\
181 -51 42 0\
-268 16 -15 -8 0\
192 191 190 189 188 -16 15 -8 0\
-268 -188 16 15 -8 0\
-268 -189 188 16 15 -8 0\
-268 -190 189 188 16 15 -8 0\
-268 -191 190 189 188 16 15 -8 0\
-268 -192 191 190 189 188 16 15 -8 0\
192 191 190 189 188 16 15 -8 0\
-268 16 8 0\
-282 -20 -11 0\
-207 -20 11 0\
-282 207 -20 11 0\
-207 20 11 0\
-37 -36 -4 0\
-37 -36 4 0\
-136 37 -36 4 0\
-136 36 4 0\
-79 -50 -42 0\
182 79 -50 -42 0\
-79 50 -42 0\
182 -50 42 0\
173 -172 -73 0\
-282 -173 -172 73 0\
173 -172 73 0\
-282 172 73 0\
-168 -55 -4 -3 0\
-38 -10 4 -3 0\
-168 -55 38 -10 4 -3 0\
-168 -55 10 4 -3 0\
-168 -55 3 0\
165 -46 -8 0\
-189 -165 -46 8 0\
165 -46 8 0\
-189 46 8 0\
-44 -15 9 -8 -4 0\
-138 -9 -8 4 0\
-44 -15 9 -8 4 0\
-138 44 -15 9 -8 4 0\
-138 15 9 -8 4 0\
-138 8 4 0\
217 -48 13 -10 -8 0\
-202 -13 10 -8 0\
-202 -48 13 10 -8 0\
217 202 -48 13 10 -8 0\
-202 48 13 10 -8 0\
-202 10 8 0\
224 -71 -13 -10 0\
224 -71 -20 13 -10 0\
-55 20 13 -10 0\
224 -71 55 20 13 -10 0\
224 -71 10 0\
-136 -24 -23 -6 0\
24 -23 -6 0\
-136 23 -6 0\
24 -23 6 0\
180 -179 -6 -3 0\
-40 -10 6 -3 0\
180 -179 40 -10 6 -3 0\
180 -179 10 6 -3 0\
180 -179 3 0\
-199 45 -12 -8 0\
-47 -45 -15 12 -8 0\
-47 45 -15 12 -8 0\
-199 47 45 -15 12 -8 0\
-199 45 15 12 -8 0\
-199 45 8 0\
253 -82 -64 -36 0\
82 -64 -36 0\
82 64 -36 0\
253 -64 36 0\
157 -56 -2 -1 0\
157 -123 -56 -29 2 -1 0\
123 -56 -29 2 -1 0\
123 56 -29 2 -1 0\
157 -56 29 2 -1 0\
157 -56 1 0\
148 -57 -48 0\
-206 -148 57 -48 0\
148 57 -48 0\
-206 57 48 0\
186 -179 -55 -45 0\
179 -55 -45 0\
186 55 -45 0\
179 -55 45 0\
-268 -26 -25 -17 0\
26 -25 -17 0\
-268 25 -17 0\
26 -25 17 0\
-213 58 -1 0\
-8 1 0\
-213 58 8 1 0\
-50 -46 0\
237 -63 50 -46 0\
237 -63 46 0\
-43 -39 0\
230 -70 43 -39 0\
230 -70 39 0\
175 -50 -44 0\
-193 -175 -50 44 0\
175 -50 44 0\
-193 50 44 0\
-35 -31 -19 -17 0\
-35 -31 -24 19 -17 0\
-69 35 -31 -24 19 -17 0\
-69 31 -24 19 -17 0\
-35 -31 24 19 -17 0\
-35 -31 17 0\
-234 -172 -61 -54 0\
172 -61 -54 0\
172 61 -54 0\
-234 -61 54 0\
245 -241 -240 -68 0\
241 -240 -68 0\
245 240 -68 0\
241 -240 68 0\
91 -35 -19 -16 0\
91 -35 -26 19 -16 0\
-66 -35 26 19 -16 0\
91 66 -35 26 19 -16 0\
-66 35 26 19 -16 0\
91 -35 16 0\
-280 66 -13 -11 0\
214 -66 -57 13 -11 0\
-280 -214 66 -57 13 -11 0\
214 66 -57 13 -11 0\
-280 66 57 13 -11 0\
-280 66 11 0\
-165 -47 -9 0\
-165 -47 9 0\
-204 165 -47 9 0\
-204 47 9 0\
-271 -19 -9 0\
-194 -19 9 0\
-271 194 -19 9 0\
-194 19 9 0\
-262 -16 -5 -1 0\
-262 -119 -32 -16 5 -1 0\
119 -32 -16 5 -1 0\
-262 32 -16 5 -1 0\
119 -32 16 5 -1 0\
-262 -16 1 0\
160 -55 -3 -1 0\
160 -129 -55 -30 3 -1 0\
129 -55 -30 3 -1 0\
129 55 -30 3 -1 0\
160 -55 30 3 -1 0\
160 -55 1 0\
237 -236 -6 -5 0\
237 -236 -142 -43 6 -5 0\
142 -43 6 -5 0\
237 -236 43 6 -5 0\
237 -236 5 0\
-49 -45 0\
-255 -60 49 -45 0\
-255 -60 45 0\
28 -21 -11 -8 0\
-46 -28 -21 -15 11 -8 0\
28 -21 -15 11 -8 0\
-46 21 -15 11 -8 0\
28 -21 15 11 -8 0\
28 -21 8 0\
172 -115 -114 -56 0\
115 -114 -56 0\
172 114 -56 0\
115 -114 56 0\
-208 -149 -55 -12 0\
149 -55 -12 0\
-208 55 -12 0\
149 -55 12 0\
84 -83 -76 0\
-77 76 0\
84 -83 77 76 0\
-102 -36 -18 -16 0\
-65 -36 -23 18 -16 0\
-102 65 -36 -23 18 -16 0\
-65 36 -23 18 -16 0\
-102 -36 23 18 -16 0\
-102 -36 16 0\
277 276 25 -18 -17 0\
-279 -25 -18 17 0\
-279 -276 25 -18 17 0\
-279 -277 276 25 -18 17 0\
277 276 25 -18 17 0\
-279 18 17 0\
111 -36 -17 -15 0\
-60 -36 -22 17 -15 0\
111 60 -36 -22 17 -15 0\
-60 36 -22 17 -15 0\
111 -36 22 17 -15 0\
111 -36 15 0\
-51 -47 0\
-251 -65 51 -47 0\
-251 -65 47 0\
180 -53 -12 -10 0\
201 -180 -54 -53 12 -10 0\
180 -54 -53 12 -10 0\
180 54 -53 12 -10 0\
201 -54 53 12 -10 0\
180 -53 10 0\
96 -95 -18 0\
275 274 273 -96 -95 -25 18 0\
96 -95 -25 18 0\
275 274 273 95 -25 18 0\
96 -95 25 18 0\
-215 -176 -175 -13 0\
176 -175 -13 0\
-215 175 -13 0\
176 -175 13 0\
221 -73 -5 -3 0\
-39 -10 5 -3 0\
221 -73 39 -10 5 -3 0\
221 -73 10 5 -3 0\
221 -73 3 0\
238 -159 -72 -53 0\
159 -72 -53 0\
159 72 -53 0\
238 -72 53 0\
-190 -41 -11 0\
-138 41 -11 0\
-190 138 41 -11 0\
-138 41 11 0\
-58 -57 -56 0\
-149 58 -57 -56 0\
-58 57 -56 0\
-149 -57 56 0\
-36 -32 0\
-52 -44 36 -32 0\
-52 -44 32 0\
148 -52 -43 0\
-142 -52 43 0\
148 142 -52 43 0\
-142 52 43 0\
218 -182 -181 -67 0\
182 -181 -67 0\
218 181 -67 0\
182 -181 67 0\
-73 -72 -38 0\
86 73 -72 -38 0\
86 72 -38 0\
-73 -72 38 0\
-258 -20 -1 0\
-135 -20 1 0\
-258 135 -20 1 0\
-135 20 1 0\
248 -60 -39 0\
-139 -60 39 0\
248 139 -60 39 0\
-139 60 39 0\
227 -72 -15 0\
-261 -227 -72 15 0\
227 -72 15 0\
-261 72 15 0\
-89 -40 -34 0\
91 89 -40 -34 0\
91 40 -34 0\
-89 -40 34 0\
155 -46 -9 -8 0\
192 -155 -46 -44 9 -8 0\
155 -46 -44 9 -8 0\
192 46 -44 9 -8 0\
155 -46 44 9 -8 0\
155 -46 8 0\
-210 -83 -39 -12 0\
83 -39 -12 0\
-210 39 -12 0\
83 -39 12 0\
-36 -29 0\
77 -76 36 -29 0\
77 -76 29 0\
166 -165 -13 -9 0\
216 -166 -165 -52 13 -9 0\
166 -165 -52 13 -9 0\
216 165 -52 13 -9 0\
166 -165 52 13 -9 0\
166 -165 9 0\
-283 -20 -18 -15 0\
-283 -275 -61 -20 18 -15 0\
275 -61 -20 18 -15 0\
-283 61 -20 18 -15 0\
275 -61 20 18 -15 0\
-283 -20 15 0\
-181 -50 -17 0\
-181 -50 17 0\
-270 181 -50 17 0\
-270 50 17 0\
-199 -17 -10 0\
-261 199 -17 -10 0\
-199 17 -10 0\
-261 -17 10 0\
247 -71 -3 0\
-145 -71 3 0\
247 145 -71 3 0\
-145 71 3 0\
-40 -39 -1 0\
-40 -39 1 0\
-129 40 -39 1 0\
-129 39 1 0\
-70 -69 -58 0\
-70 -69 58 0\
-212 70 -69 58 0\
-212 69 58 0\
80 -42 -18 -11 0\
207 206 -80 -42 18 -11 0\
80 -42 18 -11 0\
207 206 42 18 -11 0\
80 -42 11 0\
228 -60 -5 0\
-142 -60 5 0\
228 142 -60 5 0\
-142 60 5 0\
-192 -12 -9 0\
-192 -51 12 -9 0\
195 192 -51 12 -9 0\
-192 51 12 -9 0\
-50 -44 -6 -1 0\
-50 -44 -33 6 -1 0\
147 50 -44 -33 6 -1 0\
147 44 -33 6 -1 0\
-50 -44 33 6 -1 0\
-50 -44 1 0\
-195 51 -16 0\
-267 -51 16 0\
-195 51 16 0\
-267 195 51 16 0\
-71 -69 -62 0\
244 71 -69 -62 0\
244 69 -62 0\
-71 -69 62 0\
-134 -17 -4 0\
-134 17 -4 0\
-271 134 17 -4 0\
-271 17 4 0\
-32 -8 5 -2 -1 0\
-134 -5 2 -1 0\
-32 -8 5 2 -1 0\
-134 32 -8 5 2 -1 0\
-134 8 5 2 -1 0\
-134 2 1 0\
235 -155 -61 -50 0\
155 -61 -50 0\
155 61 -50 0\
235 -61 50 0\
-265 66 -5 -2 0\
-265 66 -12 5 -2 0\
-36 12 5 -2 0\
-265 66 36 12 5 -2 0\
-265 66 2 0\
267 266 265 264 23 -16 -12 -11 0\
-56 -23 -18 -16 12 -11 0\
-56 23 -18 -16 12 -11 0\
267 266 265 264 56 23 -18 -16 12 -11 0\
267 266 265 264 23 18 -16 12 -11 0\
-56 -18 16 12 -11 0\
267 266 265 264 23 -16 11 0\
286 -67 20 -16 -10 0\
199 198 -20 -17 -16 10 0\
286 -198 -67 20 -17 -16 10 0\
286 -199 198 -67 20 -17 -16 10 0\
199 198 -67 20 -17 -16 10 0\
199 198 67 20 -17 -16 10 0\
286 -67 20 17 -16 10 0\
199 198 -17 16 10 0\
-95 -32 -5 -2 0\
-95 -36 -32 5 -2 0\
140 95 -36 -32 5 -2 0\
-95 36 -32 5 -2 0\
140 -36 32 5 -2 0\
-95 -32 2 0\
183 -49 -42 0\
-136 -49 42 0\
183 136 -49 42 0\
-136 49 42 0\
-58 20 13 -12 -5 -4 0\
-41 -13 -12 -11 5 -4 0\
-41 -20 13 -12 -11 5 -4 0\
-41 20 13 -12 -11 5 -4 0\
-58 41 20 13 -12 -11 5 -4 0\
-41 12 -11 5 -4 0\
-58 20 13 -12 11 5 -4 0\
-58 20 13 -12 4 0\
-140 -5 -2 0\
-140 -123 -9 -5 2 0\
123 -9 -5 2 0\
-140 9 -5 2 0\
123 -9 5 2 0\
170 -52 -6 -4 0\
-42 -11 6 -4 0\
170 -52 42 -11 6 -4 0\
170 -52 11 6 -4 0\
170 -52 4 0\
-217 -104 -103 -13 0\
104 -103 -13 0\
-217 103 -13 0\
104 -103 13 0\
-73 27 20 -19 0\
-282 19 0\
241 -79 -63 -40 0\
79 -63 -40 0\
79 63 -40 0\
241 -63 40 0\
-155 -53 0\
252 -251 155 -53 0\
252 -251 53 0\
-63 -62 -51 0\
-161 63 -62 -51 0\
-161 62 -51 0\
-63 -62 51 0\
-72 -71 -12 0\
-72 -71 12 0\
-212 72 -71 12 0\
-212 71 12 0\
-77 74 -17 -7 0\
-272 -74 17 -7 0\
-77 74 17 -7 0\
-272 77 74 17 -7 0\
-272 17 7 0\
-213 -16 -13 0\
-213 16 -13 0\
-280 213 16 -13 0\
-280 16 13 0\
149 -148 -13 -6 0\
13 -6 0\
149 -148 6 0\
-52 -51 0\
-275 61 52 -51 0\
-275 61 51 0\
-274 -18 -17 -16 0\
-274 -267 -64 -18 17 -16 0\
267 -64 -18 17 -16 0\
-274 64 -18 17 -16 0\
267 -64 18 17 -16 0\
-274 -18 16 0\
-214 -13 -11 0\
-214 -13 11 0\
-214 13 11 0\
-88 -40 0\
156 -155 88 -40 0\
156 -155 40 0\
223 -222 -16 0\
263 -223 -222 -23 16 0\
223 -222 -23 16 0\
263 222 -23 16 0\
223 -222 23 16 0\
185 -184 -15 0\
-269 -185 -184 15 0\
185 -184 15 0\
-269 184 15 0\
88 -34 -6 -5 0\
143 -88 -43 -34 6 -5 0\
88 -43 -34 6 -5 0\
88 43 -34 6 -5 0\
143 -43 34 6 -5 0\
88 -34 5 0\
-188 -20 -16 -13 0\
-188 -27 20 -16 -13 0\
-67 27 20 -16 -13 0\
-188 67 27 20 -16 -13 0\
-188 16 -13 0\
-67 27 20 -16 13 0\
-147 -6 -5 0\
-143 -6 5 0\
-147 143 -6 5 0\
-143 6 5 0\
-243 -62 -12 0\
-243 -208 -62 -19 12 0\
-243 -209 208 -62 -19 12 0\
-243 -210 209 208 -62 -19 12 0\
-243 -211 210 209 208 -62 -19 12 0\
211 210 209 208 -62 -19 12 0\
211 210 209 208 62 -19 12 0\
-243 -62 19 12 0\
82 -32 -10 0\
-215 -82 -32 10 0\
82 -32 10 0\
-215 32 10 0\
93 -37 -10 -9 0\
198 -93 -49 -37 10 -9 0\
93 -49 -37 10 -9 0\
93 49 -37 10 -9 0\
198 -49 37 10 -9 0\
93 -37 9 0\
-228 -68 -18 -15 0\
-228 -68 -25 18 -15 0\
-61 25 18 -15 0\
-228 -68 61 25 18 -15 0\
-228 -68 15 0\
271 -69 19 -17 -4 0\
-144 -19 -17 4 0\
-144 -69 19 -17 4 0\
271 144 -69 19 -17 4 0\
-144 69 19 -17 4 0\
-144 17 4 0\
-287 63 -5 -4 0\
137 -63 -41 5 -4 0\
-287 -137 63 -41 5 -4 0\
137 63 -41 5 -4 0\
-287 63 41 5 -4 0\
-287 63 4 0\
-123 -2 -1 0\
-123 -2 1 0\
-147 123 -2 1 0\
-147 2 1 0\
231 -229 -69 -64 0\
229 -69 -64 0\
231 69 -64 0\
229 -69 64 0\
-273 17 -2 0\
-146 -17 2 0\
-146 17 2 0\
-273 146 17 2 0\
250 -68 -21 0\
-28 21 0\
250 -68 28 21 0\
-263 -97 -96 -16 0\
97 -96 -16 0\
-263 96 -16 0\
97 -96 16 0\
-194 52 -33 0\
-118 -52 33 0\
-118 52 33 0\
-194 118 52 33 0\
-37 -33 -15 0\
-37 -33 15 0\
-275 37 -33 15 0\
-275 33 15 0\
-47 19 12 -8 -2 0\
-125 -12 -8 2 0\
-125 -19 12 -8 2 0\
-47 19 12 -8 2 0\
-125 47 19 12 -8 2 0\
-125 8 2 0\
-195 -62 -12 0\
-195 62 -12 0\
-281 195 62 -12 0\
-281 62 12 0\
225 -97 -61 -33 0\
97 -61 -33 0\
97 61 -33 0\
225 -61 33 0\
178 -83 -82 -49 0\
83 -82 -49 0\
178 82 -49 0\
83 -82 49 0\
239 -238 -17 -16 0\
239 -238 -24 17 -16 0\
-64 24 17 -16 0\
239 -238 64 24 17 -16 0\
239 -238 16 0\
-107 -31 -5 0\
-139 107 -31 -5 0\
-139 31 -5 0\
-107 -31 5 0\
253 -252 -15 0\
-263 -253 -252 15 0\
253 -252 15 0\
-263 252 15 0\
78 -33 -6 -3 0\
145 -78 -40 -33 6 -3 0\
78 -40 -33 6 -3 0\
78 40 -33 6 -3 0\
145 -40 33 6 -3 0\
78 -33 3 0\
-42 -41 0\
-67 -63 42 -41 0\
-67 -63 41 0\
-65 -64 -11 -10 0\
-65 -64 -53 11 -10 0\
202 65 -64 -53 11 -10 0\
202 64 -53 11 -10 0\
-65 -64 53 11 -10 0\
-65 -64 10 0\
27 -26 -16 -9 0\
197 196 195 194 -27 -26 16 -9 0\
27 -26 16 -9 0\
197 196 195 194 26 16 -9 0\
27 -26 9 0\
-73 -66 -12 -9 0\
-51 -16 12 -9 0\
-73 -66 51 -16 12 -9 0\
-73 -66 16 12 -9 0\
-73 -66 9 0\
185 -46 -13 -10 0\
200 -185 -55 -46 13 -10 0\
185 -55 -46 13 -10 0\
185 55 -46 13 -10 0\
200 -55 46 13 -10 0\
185 -46 10 0\
76 -75 -42 0\
-144 -76 -75 42 0\
76 -75 42 0\
-144 75 42 0\
-281 -19 -11 0\
-281 -203 -19 -18 11 0\
-281 -204 203 -19 -18 11 0\
-281 -205 204 203 -19 -18 11 0\
205 204 203 -19 -18 11 0\
205 204 203 19 -18 11 0\
-281 -19 18 11 0\
-69 -68 -11 -10 0\
-69 -68 -18 11 -10 0\
-53 18 11 -10 0\
-69 -68 53 18 11 -10 0\
-69 -68 10 0\
152 -89 -51 -39 0\
89 -51 -39 0\
89 51 -39 0\
152 -51 39 0\
-54 -53 0\
-156 -57 54 -53 0\
-156 -57 53 0\
86 -85 -18 -17 0\
272 -86 -85 -68 18 -17 0\
86 -85 -68 18 -17 0\
272 85 -68 18 -17 0\
86 -85 68 18 -17 0\
86 -85 17 0\
102 -39 -8 0\
-199 -102 -39 8 0\
102 -39 8 0\
-199 39 8 0\
162 -51 -20 -16 0\
-67 -51 -23 20 -16 0\
162 67 -51 -23 20 -16 0\
-67 51 -23 20 -16 0\
162 -51 23 20 -16 0\
162 -51 16 0\
-224 -220 -73 -72 0\
220 -73 -72 0\
220 73 -72 0\
-224 -73 72 0\
-189 47 -23 -22 0\
23 -22 0\
-189 47 22 0\
111 -37 -12 -9 0\
111 -37 -19 12 -9 0\
-51 -37 19 12 -9 0\
111 51 -37 19 12 -9 0\
-51 37 19 12 -9 0\
111 -37 9 0\
-202 -13 -11 0\
-202 -57 13 -11 0\
206 202 -57 13 -11 0\
-202 57 13 -11 0\
-33 -32 -19 -12 0\
-33 -32 19 -12 0\
212 33 -32 19 -12 0\
212 32 19 -12 0\
-33 -32 12 0\
-154 -58 -32 0\
-119 -58 32 0\
-154 119 -58 32 0\
-119 58 32 0\
-190 46 -3 -1 0\
-190 46 -10 3 -1 0\
-30 10 3 -1 0\
-190 46 30 10 3 -1 0\
-190 46 1 0\
95 -94 -13 -11 0\
95 -94 -20 13 -11 0\
-57 20 13 -11 0\
95 -94 57 20 13 -11 0\
95 -94 11 0\
-122 -18 -2 0\
-273 122 -18 -2 0\
-122 18 -2 0\
-273 -18 2 0\
-121 -12 -3 0\
-211 121 -12 -3 0\
-121 12 -3 0\
-211 -12 3 0\
-202 53 -17 -16 0\
268 -64 -53 17 -16 0\
-202 -64 53 17 -16 0\
268 202 -64 53 17 -16 0\
-202 64 53 17 -16 0\
-202 53 16 0\
-264 -20 -13 0\
20 -13 0\
-264 -20 13 0\
-222 -173 -69 -51 0\
173 -69 -51 0\
173 69 -51 0\
-222 -69 51 0\
-43 -32 0\
154 -153 43 -32 0\
154 -153 32 0\
176 -57 -46 0\
-214 -176 57 -46 0\
176 57 -46 0\
-214 57 46 0\
-223 -161 -71 -49 0\
161 -71 -49 0\
161 71 -49 0\
-223 -71 49 0\
-158 -54 -31 0\
-120 -54 31 0\
-158 120 -54 31 0\
-120 54 31 0\
-128 -20 -19 -3 0\
-128 -73 20 -19 -3 0\
282 128 -73 20 -19 -3 0\
-128 73 20 -19 -3 0\
-128 19 -3 0\
282 -73 20 -19 3 0\
-205 46 -5 0\
141 140 139 138 -46 -12 5 0\
-205 -138 46 -12 5 0\
-205 -139 138 46 -12 5 0\
-205 -140 139 138 46 -12 5 0\
-205 -141 140 139 138 46 -12 5 0\
141 140 139 138 46 -12 5 0\
-205 46 12 5 0\
-65 -61 -18 -16 0\
-65 -61 18 -16 0\
266 -65 61 18 -16 0\
-65 -61 16 0\
-287 -20 -2 -1 0\
-287 -20 -9 2 -1 0\
-29 -20 9 2 -1 0\
-287 29 -20 9 2 -1 0\
-29 20 9 2 -1 0\
-287 -20 1 0\
-209 -13 -12 0\
-209 -58 13 -12 0\
212 209 -58 13 -12 0\
-209 58 13 -12 0\
-259 -19 -15 0\
-22 -19 15 0\
-259 22 -19 15 0\
-22 19 15 0\
-156 -76 -74 -56 0\
76 -74 -56 0\
-156 74 -56 0\
76 -74 56 0\
-60 -59 -1 0\
-60 -59 1 0\
-118 60 -59 1 0\
-118 59 1 0\
84 -41 -5 -2 0\
125 -84 -41 -36 5 -2 0\
84 -41 -36 5 -2 0\
125 41 -36 5 -2 0\
84 -41 36 5 -2 0\
84 -41 2 0\
240 -67 -10 -8 0\
-45 -15 10 -8 0\
240 -67 45 -15 10 -8 0\
240 -67 15 10 -8 0\
240 -67 8 0\
109 -40 -27 -20 0\
27 -20 0\
109 -40 20 0}